32      4       
17      9       14      17      
0       0       0       0       0       3       2       3       4       
5       0       0       9       0       3       6       13      15      
7       4       0       0       0       3       5       8       11      
4       0       3       0       0       3       12      18      24      
5       0       0       1       0       2       7       27      
4       0       0       0       5       1       30      
4       0       0       0       4       1       10      
4       0       0       0       6       1       9       
9       0       0       0       3       1       20      
10      0       0       2       0       1       16      
4       6       0       0       0       2       17      31      
5       0       1       0       0       1       22      
2       8       0       0       0       3       14      16      19      
1       0       0       7       0       1       30      
10      8       0       0       0       3       20      23      25      
6       0       0       2       0       1       26      
1       0       6       0       0       2       18      29      
8       0       0       1       0       1       30      
1       0       8       0       0       2       22      28      
9       0       8       0       0       1       21      
6       0       8       0       0       1       26      
1       0       5       0       0       1       31      
1       0       0       0       9       1       27      
8       0       0       7       0       1       25      
8       0       0       0       5       1       28      
3       0       0       0       4       1       28      
3       0       0       10      0       1       29      
6       3       0       0       0       2       29      31      
10      10      0       0       0       1       32      
5       0       0       7       0       1       32      
5       0       0       0       3       1       32      
0       0       0       0       0       0       